12 40 6 10
2 7 3 15 20 1 15 7 12 16 1 8 4 5 13 12 17 5 12 16 12 18 10 3 4 18 12 7 18 14 16 7 16 3 14 12 14 11 16 17 
2.48 0.96 5.15 1.73 7.12 7.14 1.3 3.7 4.65 0.02 7.35 4.21 6.6 1.56 1.63 4.96 5.28 3.16 7.35 5.89 2.2 6.02 3.99 7.79 1.47 2.25 0.7 0.74 2.96 0.85 6.3 2.6 5.76 0.97 6.14 3.71 5.98 3.89 4.55 0.71 
0.84 5.66 3.9 4.36 0.09 6.63 7.95 2.89 3.42 1.71 0.31 3.69 1.17 7.11 4.28 6.54 7.49 1.51 3.37 5.05 3.34 0.94 4.64 2.73 7.83 7.37 4.92 6.94 4.68 0.69 2.06 6.44 1.5 6.36 4.48 2.82 0.64 4.74 6.77 7.17 
7.53 0.08 5.88 2.48 3.03 0.55 1.46 5.87 7.18 3.28 1.83 5.38 6.08 0.55 4.64 3.36 0.54 6.5 7.78 1.23 0.38 0.79 1.49 4.53 4.91 1.51 3.65 5.22 4 6.24 2.95 3.4 4.21 7.26 1.84 0.42 0.23 3.97 2.46 5.93 
7.96 2.47 4.99 4.85 5.97 3.45 1.94 2.85 1.11 7.59 1.47 1.44 1.89 2.79 4.56 4.38 6.88 2.76 4.25 4.87 6.79 7.82 2.82 0.34 5.78 6.66 5.13 2.01 4.44 3.59 4.17 1.03 5.24 7.9 5.56 0.41 5.91 7.85 7.44 4.63 
7.36 4.23 0.21 3.72 0.17 3.17 7.75 4.47 0.34 1.39 3.73 4.93 4.93 1.99 0.77 2.16 3.43 4.33 6.35 7 0.4 4.85 2.65 1.55 3.36 5.39 7.24 7.7 2.96 4.35 5.25 6.07 7.59 5.02 0.04 5.24 1.05 7.76 2.19 3.84 
5.8 6.69 5.25 3.93 7.62 5.81 4.86 4.14 6.12 6.8 1.63 7.83 7.81 0.88 6.21 6.47 1.63 5.81 3.39 5.85 3.1 1.8 1.43 7.01 1.08 1.7 4.85 5.68 5.98 3.38 4.31 6.86 7.77 1.81 2.21 3.18 3.25 2.7 0.83 4.33 
4 4 4 4 4 4 4 4 4 4 4 4 4 4 4 4 4 4 4 4 4 4 4 4 4 4 4 4 4 4 4 4 4 4 4 4 4 4 4 4 
7.46 7.85 3.22 3.73 4.89 4.46 7.68 3.48 6.45 7.27 3.15 4.67 3 6.46 5.9 1.63 2.34 0.89 3.12 5.34 7.9 6.92 2.69 6.68 4.88 3.4 1.99 2.66 7.26 6.91 3.18 3.23 4.74 4.52 1.85 6.43 0.32 0.55 4.1 0.1 
6.02 7.93 1.26 3.12 2.31 4.18 0.74 2.42 1.36 2.81 6.15 1.29 1.23 0.06 5.81 0.49 5.91 6.07 1.23 3.6 2.92 4.92 5.58 2.57 7.84 4.78 3.08 5.88 5.38 2.45 5.59 2.66 3.75 3.79 4.18 3.83 2.75 1.96 0.7 7.28 
6.22 0.52 4.85 0.4 5.59 4.56 0.74 1.48 6.87 2.85 1.05 1.06 7.58 7.29 4.04 5.46 5.21 4.29 0.63 4.52 5.22 4.78 1.95 0.73 2.85 1.19 6.28 3.2 4.75 4.55 2.23 4.41 3.15 0.51 1.34 0.9 0.54 4.85 1.38 1.18 
2.17 0.08 7.55 1.39 7.25 2 5.31 3.48 2.58 4.49 2.81 3.72 6.41 6.27 2.31 0.15 7.63 7.35 5.95 2.28 5.06 1.15 0.92 3.99 5.94 2.33 0.17 1.1 2.63 7.15 7.92 0.03 4.93 3.46 0.71 1.12 4.85 5.63 7.23 4.55 
2.75 6.16 3.12 6.83 4.28 6.97 1.83 1.31 5.87 7.6 5.32 1.07 2.56 7.15 2.25 1.65 0.08 3.64 3.9 1.04 3.47 7.76 5.89 7.25 5.08 6.06 2.1 3.67 0.68 0.95 1.64 1.04 5.74 4.68 0.05 3.44 0.45 7.86 2.44 0.26 
1 1 1 1 1 1 1 1 1 1 1 1 1 1 1 1 1 1 1 1 1 1 1 1 1 1 1 1 1 1 1 1 1 1 1 1 1 1 1 1 
1 1 1 1 1 1 1 1 1 1 1 1 1 1 1 1 1 1 1 1 1 1 1 1 1 1 1 1 1 1 1 1 1 1 1 1 1 1 1 1 
1 1 1 1 1 1 1 1 1 1 1 1 1 1 1 1 1 1 1 1 1 1 1 1 1 1 1 1 1 1 1 1 1 1 1 1 1 1 1 1 
1 1 1 1 1 1 1 1 1 1 1 1 1 1 1 1 1 1 1 1 1 1 1 1 1 1 1 1 1 1 1 1 1 1 1 1 1 1 1 1 
1 1 1 1 1 1 1 1 1 1 1 1 1 1 1 1 1 1 1 1 1 1 1 1 1 1 1 1 1 1 1 1 1 1 1 1 1 1 1 1 
1 1 1 1 1 1 1 1 1 1 1 1 1 1 1 1 1 1 1 1 1 1 1 1 1 1 1 1 1 1 1 1 1 1 1 1 1 1 1 1 
1 1 1 1 1 1 1 1 1 1 1 1 1 1 1 1 1 1 1 1 1 1 1 1 1 1 1 1 1 1 1 1 1 1 1 1 1 1 1 1 
1 1 1 1 1 1 1 1 1 1 1 1 1 1 1 1 1 1 1 1 1 1 1 1 1 1 1 1 1 1 1 1 1 1 1 1 1 1 1 1 
1 1 1 1 1 1 1 1 1 1 1 1 1 1 1 1 1 1 1 1 1 1 1 1 1 1 1 1 1 1 1 1 1 1 1 1 1 1 1 1 
1 1 1 1 1 1 1 1 1 1 1 1 1 1 1 1 1 1 1 1 1 1 1 1 1 1 1 1 1 1 1 1 1 1 1 1 1 1 1 1 
1 1 1 1 1 1 1 1 1 1 1 1 1 1 1 1 1 1 1 1 1 1 1 1 1 1 1 1 1 1 1 1 1 1 1 1 1 1 1 1 
1 1 1 1 1 1 1 1 1 1 1 1 1 1 1 1 1 1 1 1 1 1 1 1 1 1 1 1 1 1 1 1 1 1 1 1 1 1 1 1 
0.01 0.01 0.01 0.01 0.01 0.01 0.01 0.01 0.01 0.01 0.01 0.01 0.01 0.01 0.01 0.01 0.01 0.01 0.01 0.01 0.01 0.01 0.01 0.01 0.01 0.01 0.01 0.01 0.01 0.01 0.01 0.01 0.01 0.01 0.01 0.01 0.01 0.01 0.01 0.01 
0.02 0.02 0.02 0.02 0.02 0.02 0.02 0.02 0.02 0.02 0.02 0.02 0.02 0.02 0.02 0.02 0.02 0.02 0.02 0.02 0.02 0.02 0.02 0.02 0.02 0.02 0.02 0.02 0.02 0.02 0.02 0.02 0.02 0.02 0.02 0.02 0.02 0.02 0.02 0.02 
0.03 0.03 0.03 0.03 0.03 0.03 0.03 0.03 0.03 0.03 0.03 0.03 0.03 0.03 0.03 0.03 0.03 0.03 0.03 0.03 0.03 0.03 0.03 0.03 0.03 0.03 0.03 0.03 0.03 0.03 0.03 0.03 0.03 0.03 0.03 0.03 0.03 0.03 0.03 0.03 
0.04 0.04 0.04 0.04 0.04 0.04 0.04 0.04 0.04 0.04 0.04 0.04 0.04 0.04 0.04 0.04 0.04 0.04 0.04 0.04 0.04 0.04 0.04 0.04 0.04 0.04 0.04 0.04 0.04 0.04 0.04 0.04 0.04 0.04 0.04 0.04 0.04 0.04 0.04 0.04 
0.05 0.05 0.05 0.05 0.05 0.05 0.05 0.05 0.05 0.05 0.05 0.05 0.05 0.05 0.05 0.05 0.05 0.05 0.05 0.05 0.05 0.05 0.05 0.05 0.05 0.05 0.05 0.05 0.05 0.05 0.05 0.05 0.05 0.05 0.05 0.05 0.05 0.05 0.05 0.05 
0.06 0.06 0.06 0.06 0.06 0.06 0.06 0.06 0.06 0.06 0.06 0.06 0.06 0.06 0.06 0.06 0.06 0.06 0.06 0.06 0.06 0.06 0.06 0.06 0.06 0.06 0.06 0.06 0.06 0.06 0.06 0.06 0.06 0.06 0.06 0.06 0.06 0.06 0.06 0.06 
0.07 0.07 0.07 0.07 0.07 0.07 0.07 0.07 0.07 0.07 0.07 0.07 0.07 0.07 0.07 0.07 0.07 0.07 0.07 0.07 0.07 0.07 0.07 0.07 0.07 0.07 0.07 0.07 0.07 0.07 0.07 0.07 0.07 0.07 0.07 0.07 0.07 0.07 0.07 0.07 
0.2 0.2 0.2 0.2 0.2 0.2 0.2 0.2 0.2 0.2 0.2 0.2 0.2 0.2 0.2 0.2 0.2 0.2 0.2 0.2 0.2 0.2 0.2 0.2 0.2 0.2 0.2 0.2 0.2 0.2 0.2 0.2 0.2 0.2 0.2 0.2 0.2 0.2 0.2 0.2 
0.4 0.4 0.4 0.4 0.4 0.4 0.4 0.4 0.4 0.4 0.4 0.4 0.4 0.4 0.4 0.4 0.4 0.4 0.4 0.4 0.4 0.4 0.4 0.4 0.4 0.4 0.4 0.4 0.4 0.4 0.4 0.4 0.4 0.4 0.4 0.4 0.4 0.4 0.4 0.4 
0.6 0.6 0.6 0.6 0.6 0.6 0.6 0.6 0.6 0.6 0.6 0.6 0.6 0.6 0.6 0.6 0.6 0.6 0.6 0.6 0.6 0.6 0.6 0.6 0.6 0.6 0.6 0.6 0.6 0.6 0.6 0.6 0.6 0.6 0.6 0.6 0.6 0.6 0.6 0.6 
0.8 0.8 0.8 0.8 0.8 0.8 0.8 0.8 0.8 0.8 0.8 0.8 0.8 0.8 0.8 0.8 0.8 0.8 0.8 0.8 0.8 0.8 0.8 0.8 0.8 0.8 0.8 0.8 0.8 0.8 0.8 0.8 0.8 0.8 0.8 0.8 0.8 0.8 0.8 0.8 
1 1 1 1 1 1 1 1 1 1 1 1 1 1 1 1 1 1 1 1 1 1 1 1 1 1 1 1 1 1 1 1 1 1 1 1 1 1 1 1 
